Problem:    Pollos
Rows:       29
Columns:    12
Non-zeros:  92
Status:     OPTIMAL
Objective:  Z = 2.022998482 (MINimum)

   No.   Row name   St   Activity     Lower bound   Upper bound    Marginal
------ ------------ -- ------------- ------------- ------------- -------------
     1 Z            B          2.023                             
     2 CantidadSemanalAlimento[1]
                    NS          0.26          0.26             =      0.812449 
     3 CantidadSemanalAlimento[2]
                    NS          0.48          0.48             =      0.812449 
     4 CantidadSemanalAlimento[3]
                    NS          0.75          0.75             =      0.812449 
     5 CantidadSemanalAlimento[4]
                    NS             1             1             =      0.812449 
     6 CantiMinimaNutrientes[1,1]
                    B        0.00104            -0               
     7 CantiMinimaNutrientes[1,2]
                    NL             0            -0                     2.80538 
     8 CantiMinimaNutrientes[1,3]
                    B      0.0100963            -0               
     9 CantiMinimaNutrientes[2,1]
                    B        0.00192            -0               
    10 CantiMinimaNutrientes[2,2]
                    NL             0            -0                     2.80538 
    11 CantiMinimaNutrientes[2,3]
                    B      0.0186394            -0               
    12 CantiMinimaNutrientes[3,1]
                    B          0.003            -0               
    13 CantiMinimaNutrientes[3,2]
                    NL             0            -0                     2.80538 
    14 CantiMinimaNutrientes[3,3]
                    B       0.029124            -0               
    15 CantiMinimaNutrientes[4,1]
                    B          0.004            -0               
    16 CantiMinimaNutrientes[4,2]
                    NL             0            -0                     2.80538 
    17 CantiMinimaNutrientes[4,3]
                    B       0.038832            -0               
    18 CantiMaxNutrientes[1,1]
                    NU             0                          -0     -0.204528 
    19 CantiMaxNutrientes[1,2]
                    B        -0.2028                          -0 
    20 CantiMaxNutrientes[1,3]
                    B    -0.00290368                          -0 
    21 CantiMaxNutrientes[2,1]
                    NU             0                          -0     -0.204528 
    22 CantiMaxNutrientes[2,2]
                    B        -0.3744                          -0 
    23 CantiMaxNutrientes[2,3]
                    B    -0.00536064                          -0 
    24 CantiMaxNutrientes[3,1]
                    NU             0                          -0     -0.204528 
    25 CantiMaxNutrientes[3,2]
                    B         -0.585                          -0 
    26 CantiMaxNutrientes[3,3]
                    B      -0.008376                          -0 
    27 CantiMaxNutrientes[4,1]
                    NU             0                          -0     -0.204528 
    28 CantiMaxNutrientes[4,2]
                    B          -0.78                          -0 
    29 CantiMaxNutrientes[4,3]
                    B      -0.011168                          -0 

   No. Column name  St   Activity     Lower bound   Upper bound    Marginal
------ ------------ -- ------------- ------------- ------------- -------------
     1 X[1,1]       B     0.00732441             0               
     2 X[1,2]       B       0.168629             0               
     3 X[1,3]       B      0.0840468             0               
     4 X[2,1]       B       0.013522             0               
     5 X[2,2]       B       0.311315             0               
     6 X[2,3]       B       0.155163             0               
     7 X[3,1]       B      0.0211281             0               
     8 X[3,2]       B       0.486429             0               
     9 X[3,3]       B       0.242443             0               
    10 X[4,1]       B      0.0281708             0               
    11 X[4,2]       B       0.648572             0               
    12 X[4,3]       B       0.323257             0               

Karush-Kuhn-Tucker optimality conditions:

KKT.PE: max.abs.err = 2.22e-16 on row 5
        max.rel.err = 7.40e-17 on row 5
        High quality

KKT.PB: max.abs.err = 0.00e+00 on row 0
        max.rel.err = 0.00e+00 on row 0
        High quality

KKT.DE: max.abs.err = 3.33e-16 on column 1
        max.rel.err = 1.27e-16 on column 1
        High quality

KKT.DB: max.abs.err = 0.00e+00 on row 0
        max.rel.err = 0.00e+00 on row 0
        High quality

End of output
